Route #1: 151 185 118 208 24 84
Route #2: 209 26 102 148 213 153 190 161 20 205 109 183 51 164 37 66 14 16 114 122 113 95 184 54 119 171 178 194 19 15 98 87 34 133 160 162 189 179 92
Route #3: 96 47 49 191 206 10 39 38 73 125 159 195 56 81 22 212 94 74 29 88 43 192 188 130 141 139 77 17 163 200
Route #4: 137 172 193 106 55 65 71 4 101 72 36 7 99 13 120 93 181 82 78 76 27 168 117 53 175 180 97 136 182 115 59 173 50 201 166 46 149 33 80
Route #5: 6 116 31 107 32 121 12 127 52 25 170 8 89 69 61 85 44 145 150 90 86 146 134 111 57 128 165 100 28 75 112 154 67 103 158 58 143
Route #6: 138 83 210 64 186 187 63 68 11 132 129 5 41 157 104 204 177 156 2 147 91 62 48 144 45 40 167 135 124
Route #7: 152 169 140 70 23 105 174 211 202 207 203 35 1 126 198 9 197 79 42 108 176 110 18 142 60 199 3 196 30 131 21 155 123
Cost 8512.000000